
Gurobi 13.0.1 (linux64) logging started Sat Mar 21 19:06:19 2026

Set parameter LogFile to value "logs/50B_3F_robust_gamma_0d75_theta_0d05199999999999999_2026-03-21_19h06m13s.log"
Gurobi Optimizer version 13.0.1 build v13.0.1rc0 (linux64 - "Linux Mint 22")

CPU model: 12th Gen Intel(R) Core(TM) i7-12700, instruction set [SSE2|AVX|AVX2]
Thread count: 20 physical cores, 20 logical processors, using up to 20 threads

Non-default parameters:
TimeLimit  3600
SoftMemLimit  12

Optimize a model with 30471 rows, 390571 columns and 1204034 nonzeros (Max)
Model fingerprint: 0x14b953e2
Model has 367561 linear objective coefficients
Variable types: 8071 continuous, 382500 integer (382500 binary)
Coefficient statistics:
  Matrix range     [3e-05, 1e+05]
  Objective range  [1e+00, 3e+03]
  Bounds range     [1e+00, 1e+05]
  RHS range        [8e-03, 1e+05]

Presolve removed 15658 rows and 282196 columns
Presolve time: 0.61s
Presolved: 14813 rows, 108375 columns, 345908 nonzeros
Variable types: 3921 continuous, 104454 integer (104454 binary)
Found heuristic solution: objective -3.92155e+08
Deterministic concurrent LP optimizer: primal and dual simplex
Showing primal log only...

Concurrent spin time: 0.57s (can be avoided by choosing Method=3)

Solved with dual simplex

Root relaxation: objective 6.769380e+07, 10274 iterations, 2.68 seconds (3.97 work units)

    Nodes    |    Current Node    |     Objective Bounds      |     Work
 Expl Unexpl |  Obj  Depth IntInf | Incumbent    BestBd   Gap | It/Node Time

     0     0 6.7694e+07    0 3965 -3.922e+08 6.7694e+07   117%     -    3s
H    0     0                    -1.98185e+08 6.7694e+07   134%     -    4s
H    0     0                    -1.15107e+08 6.7694e+07   159%     -    4s
H    0     0                    -6.48194e+07 6.7694e+07   204%     -    5s
H    0     0                    -6.25542e+07 6.7694e+07   208%     -    5s
H    0     0                    -4.09362e+07 6.7694e+07   265%     -    5s
H    0     0                    -3.93994e+07 6.7694e+07   272%     -    6s
H    0     0                    -1.14297e+07 6.7694e+07   692%     -   10s
H    0     0                    -1.04290e+07 6.7694e+07   749%     -   10s
H    0     0                    -9954743.170 6.7694e+07   780%     -   10s
H    0     0                    -9944975.247 6.7694e+07   781%     -   10s
H    0     0                    1.330183e+07 6.7694e+07   409%     -   11s
H    0     0                    2.600682e+07 6.7694e+07   160%     -   11s
H    0     0                    5.809349e+07 6.7694e+07  16.5%     -   11s
H    0     0                    5.810381e+07 6.7694e+07  16.5%     -   11s
H    0     0                    5.823493e+07 6.7694e+07  16.2%     -   11s
H    0     0                    5.823967e+07 6.7694e+07  16.2%     -   11s
H    0     0                    5.825108e+07 6.7694e+07  16.2%     -   12s
H    0     0                    5.857970e+07 6.7694e+07  15.6%     -   12s
H    0     0                    5.858012e+07 6.7694e+07  15.6%     -   12s
H    0     0                    5.858202e+07 6.7694e+07  15.6%     -   12s
H    0     0                    5.866724e+07 6.7694e+07  15.4%     -   12s
H    0     0                    5.866887e+07 6.7694e+07  15.4%     -   12s
H    0     0                    5.866932e+07 6.7694e+07  15.4%     -   12s
H    0     0                    5.867054e+07 6.7694e+07  15.4%     -   13s
H    0     0                    5.867118e+07 6.7694e+07  15.4%     -   13s
H    0     0                    5.878548e+07 6.7694e+07  15.2%     -   13s
H    0     0                    5.880368e+07 6.7694e+07  15.1%     -   14s
     0     0 6.7694e+07    0 3728 5.8804e+07 6.7694e+07  15.1%     -   19s
H    0     0                    5.887256e+07 6.7694e+07  15.0%     -   19s
H    0     0                    5.887674e+07 6.7694e+07  15.0%     -   21s
     0     0 6.7694e+07    0 3726 5.8877e+07 6.7694e+07  15.0%     -   23s
     0     0 6.7693e+07    0 4979 5.8877e+07 6.7693e+07  15.0%     -   28s
     0     0 6.7693e+07    0 5037 5.8877e+07 6.7693e+07  15.0%     -   28s
     0     0 6.7693e+07    0 5282 5.8877e+07 6.7693e+07  15.0%     -   36s
     0     0 6.7693e+07    0 5381 5.8877e+07 6.7693e+07  15.0%     -   56s
     0     0 6.7692e+07    0 5026 5.8877e+07 6.7692e+07  15.0%     -   63s
     0     0 6.7692e+07    0 5330 5.8877e+07 6.7692e+07  15.0%     -   66s
     0     0 6.7692e+07    0 5337 5.8877e+07 6.7692e+07  15.0%     -   67s
     0     0 6.7692e+07    0 5459 5.8877e+07 6.7692e+07  15.0%     -   70s
     0     0 6.7692e+07    0 5459 5.8877e+07 6.7692e+07  15.0%     -   70s
     0     0 6.7692e+07    0 4891 5.8877e+07 6.7692e+07  15.0%     -   71s
     0     2 6.7692e+07    0 4891 5.8877e+07 6.7692e+07  15.0%     -   82s
     1     4 6.7692e+07    1 4903 5.8877e+07 6.7692e+07  15.0%   160   88s
     3     8 6.7692e+07    2 5195 5.8877e+07 6.7692e+07  15.0%  2488   93s
H    7    16                    5.889882e+07 6.7692e+07  14.9%  2822  101s
    15    31 6.7692e+07    4 5334 5.8899e+07 6.7692e+07  14.9%  3017  132s
    30    51 6.7692e+07    5 5243 5.8899e+07 6.7692e+07  14.9%  5198  150s
    50    78 6.7692e+07    6 5158 5.8899e+07 6.7692e+07  14.9%  3770  178s
H   51    78                    5.889963e+07 6.7692e+07  14.9%  3696  178s
H   53    78                    5.890318e+07 6.7692e+07  14.9%  3605  178s
H   56    78                    5.890506e+07 6.7692e+07  14.9%  3486  178s
H   57    78                    5.890707e+07 6.7692e+07  14.9%  3455  178s
H   72    78                    5.891974e+07 6.7692e+07  14.9%  2996  178s
H   77   218                    5.892042e+07 6.7692e+07  14.9%  2869  292s
H   87   218                    5.892466e+07 6.7692e+07  14.9%  2690  292s
H  217   513                    5.892541e+07 6.7692e+07  14.9%  2193  485s
H  278   513                    5.892592e+07 6.7692e+07  14.9%  2131  485s
H  313   513                    5.892594e+07 6.7692e+07  14.9%  2080  485s
H  329   513                    5.892686e+07 6.7692e+07  14.9%  2069  485s
H  381   513                    5.892727e+07 6.7692e+07  14.9%  2082  485s
H  425   513                    5.908998e+07 6.7692e+07  14.6%  2054  485s
H  512   736                    6.046089e+07 6.7692e+07  12.0%  2020  720s
   735  1544 6.7692e+07   34 5124 6.0461e+07 6.7692e+07  12.0%  2154 1317s
H 1543  3306                    6.046209e+07 6.7692e+07  12.0%  1971 2112s
H 2060  3306                    6.046249e+07 6.7692e+07  12.0%  1922 2112s
  3305  5288 6.7684e+07  114 3727 6.0462e+07 6.7692e+07  12.0%  1692 2723s
H 3392  5288                    6.046280e+07 6.7692e+07  12.0%  1679 2723s
H 3392  5288                    6.046464e+07 6.7692e+07  12.0%  1679 2723s
H 3639  5288                    6.046514e+07 6.7692e+07  12.0%  1636 2723s
H 3922  5288                    6.046707e+07 6.7692e+07  11.9%  1625 2723s
H 5287  5344                    6.046922e+07 6.7692e+07  11.9%  1468 3009s
H 5340  5344                    6.047069e+07 6.7692e+07  11.9%  1460 3009s
  5355  6953 6.7681e+07  181 2387 6.0471e+07 6.7692e+07  11.9%  1459 3487s
H 6000  6953                    6.047123e+07 6.7692e+07  11.9%  1438 3487s
H 6574  6953                    6.047183e+07 6.7692e+07  11.9%  1410 3487s
H 6964  7105                    6.047190e+07 6.7692e+07  11.9%  1383 3600s
H 7001  7105                    6.047302e+07 6.7692e+07  11.9%  1380 3600s
H 7003  7105                    6.047328e+07 6.7692e+07  11.9%  1380 3600s
H 7007  7105                    6.047361e+07 6.7692e+07  11.9%  1380 3600s
H 7111  7105                    6.048031e+07 6.7692e+07  11.9%  1374 3600s

Cutting planes:
  Gomory: 17
  Implied bound: 4
  MIR: 52
  Flow cover: 195
  Zero half: 10
  Mod-K: 7
  RLT: 2345
  Relax-and-lift: 48

Explored 7116 nodes (9810197 simplex iterations) in 3600.13 seconds (2693.06 work units)
Thread count was 20 (of 20 available processors)

Solution count 10: 6.04803e+07 6.04736e+07 6.04733e+07 ... 6.04671e+07

Time limit reached
Best objective 6.048030519642e+07, best bound 6.769239050642e+07, gap 11.9247%
